Route #1: 7 20 40 10 23 12
Route #2: 15 31 22 16 32 36
Route #3: 29 14 17 28 1
Route #4: 19 26 5 13 30 8
Route #5: 4 27 38 39
Route #6: 9 37 3 18 21 2 35 24
Route #7: 25 6 33 34 11
Cost 898.0932173296676